
Gurobi 11.0.3 (linux64) logging started Fri Nov 22 01:20:19 2024

Set parameter LogFile to value "/home/yihong/Coding/OR_SUC/SUC_results_bigM100000_thread4/case24_ieee_rts_theta0.5_epsilon0.05_gurobi_seed570000_num_gen100_N_WDR100_load_scaling_factor1_proposed_T24quadra_cost.txt"
Set parameter TimeLimit to value 3600
Gurobi Optimizer version 11.0.3 build v11.0.3rc0 (linux64 - "Ubuntu 20.04.6 LTS")

CPU model: AMD EPYC 7532 32-Core Processor, instruction set [SSE2|AVX|AVX2]
Thread count: 64 physical cores, 128 logical processors, using up to 4 threads

Optimize a model with 57558 rows, 29861 columns and 1315898 nonzeros
Model fingerprint: 0xcd414e5b
Model has 2400 quadratic constraints
Variable types: 27461 continuous, 2400 integer (2400 binary)
Coefficient statistics:
  Matrix range     [3e-04, 2e+03]
  QMatrix range    [2e-03, 8e-03]
  QLMatrix range   [2e-01, 6e+01]
  Objective range  [1e+00, 1e+00]
  Bounds range     [1e+00, 1e+00]
  RHS range        [1e+00, 9e+03]
Presolve removed 47035 rows and 12661 columns
Presolve time: 0.44s
Presolved: 10523 rows, 17200 columns, 58052 nonzeros
Presolved model has 2400 quadratic constraint(s)
Variable types: 14800 continuous, 2400 integer (2400 binary)

Root relaxation: objective 4.777857e+04, 8661 iterations, 0.27 seconds (0.38 work units)

    Nodes    |    Current Node    |     Objective Bounds      |     Work
 Expl Unexpl |  Obj  Depth IntInf | Incumbent    BestBd   Gap | It/Node Time

     0     0 47778.5688    0   24          - 47778.5688      -     -    0s
     0     0 299795.830    0  753          - 299795.830      -     -    1s
     0     0 337977.894    0  802          - 337977.894      -     -    1s
     0     0 571566.167    0  824          - 571566.167      -     -    1s
     0     0 571606.828    0  471          - 571606.828      -     -    1s
     0     0 571800.669    0  265          - 571800.669      -     -    1s
     0     0 571803.126    0  264          - 571803.126      -     -    1s
     0     0 571803.126    0  266          - 571803.126      -     -    2s
     0     0 571803.678    0  266          - 571803.678      -     -    2s
     0     2 571803.678    0  266          - 571803.678      -     -    2s
   273   374 572003.706   40  291          - 571814.449      -  28.2    5s
H  508   337                    572184.82736 571814.449  0.06%  18.9    6s
*  508   337             192    572184.82736 571814.449  0.06%  18.9    6s

Cutting planes:
  Gomory: 11
  Implied bound: 389
  MIR: 76
  Flow cover: 242
  RLT: 9

Explored 549 nodes (34168 simplex iterations) in 6.62 seconds (9.71 work units)
Thread count was 4 (of 128 available processors)

Solution count 2: 572185 572185 

Optimal solution found (tolerance 1.00e-03)
Warning: max constraint violation (2.8152e-07) exceeds tolerance
Best objective 5.721848273603e+05, best bound 5.718144491401e+05, gap 0.0647%
